908708
17 14 42391
14 3 30026
3 16 71701
16 2 57771
2 35 10541
35 11 5412
11 10 5506
10 1 6947
1 21 6578
21 7 17005
7 18 20722
18 27 12606
27 40 17541
40 19 13572
19 4 26533
4 22 23621
22 24 45980
24 5 63665
5 32 3290
32 20 24202
20 26 24941
26 33 15458
33 12 3967
12 34 39715
34 25 30137
25 39 4093
39 37 6534
37 30 941
30 31 10287
31 23 11949
23 38 7449
38 29 745
29 28 17517
28 13 6411
13 36 26785
36 6 22446
6 9 47658
9 8 54349
8 15 26227
15 17 45489
